certificates/rado_a13_c80_N25.cnf
c Rad2 upper bound instance: x1 + 13*x2 - x3 = 80, interval [1,25]
p cnf 25 96
1 7 12 0
-1 -7 -12 0
1 8 25 0
-1 -8 -25 0
2 7 13 0
-2 -7 -13 0
1 3 6 0
-1 -3 -6 0
3 7 14 0
-3 -7 -14 0
2 4 6 0
-2 -4 -6 0
4 7 15 0
-4 -7 -15 0
3 5 6 0
-3 -5 -6 0
5 7 16 0
-5 -7 -16 0
4 6 0
-4 -6 0
6 7 17 0
-6 -7 -17 0
5 6 7 0
-5 -6 -7 0
7 18 0
-7 -18 0
6 8 0
-6 -8 0
7 8 19 0
-7 -8 -19 0
6 7 9 0
-6 -7 -9 0
7 9 20 0
-7 -9 -20 0
6 8 10 0
-6 -8 -10 0
7 10 21 0
-7 -10 -21 0
6 9 11 0
-6 -9 -11 0
7 11 22 0
-7 -11 -22 0
6 10 12 0
-6 -10 -12 0
7 12 23 0
-7 -12 -23 0
6 11 13 0
-6 -11 -13 0
7 13 24 0
-7 -13 -24 0
6 12 14 0
-6 -12 -14 0
7 14 25 0
-7 -14 -25 0
6 13 15 0
-6 -13 -15 0
1 5 16 0
-1 -5 -16 0
6 14 16 0
-6 -14 -16 0
2 5 17 0
-2 -5 -17 0
6 15 17 0
-6 -15 -17 0
3 5 18 0
-3 -5 -18 0
6 16 18 0
-6 -16 -18 0
4 5 19 0
-4 -5 -19 0
6 17 19 0
-6 -17 -19 0
5 20 0
-5 -20 0
6 18 20 0
-6 -18 -20 0
5 6 21 0
-5 -6 -21 0
6 19 21 0
-6 -19 -21 0
5 7 22 0
-5 -7 -22 0
6 20 22 0
-6 -20 -22 0
5 8 23 0
-5 -8 -23 0
6 21 23 0
-6 -21 -23 0
5 9 24 0
-5 -9 -24 0
6 22 24 0
-6 -22 -24 0
5 10 25 0
-5 -10 -25 0
6 23 25 0
-6 -23 -25 0
