certificates/rado_a13_c80_N25.drat
-23 -25 0
d -23 -6 -25 0
12 14 23 0
8 -12 23 0
7 -3 6 0
-8 -24 -25 0
8 23 0
d 8 -12 23 0
-8 -25 0
d -8 -1 -25 0
-25 0
5 6 0
d 5 7 6 0
-8 0
1 0
6 0
23 0
-3 0
-4 0
-21 0
-7 0
14 0
15 0
18 0
19 0
10 0
-16 0
-12 0
-17 0
-13 0
-20 0
5 0
24 0
2 0
9 0
0
